# Solution for model HELLO
# Objective value = 10799
XXXXXXX0 1
XXXXXXX1 1
XXXXXXX2 1
XXXXXXX3 1
XXXXXXX4 1
XXXXXXX5 0
XXXXXXX6 1
XXXXXXX7 1
XXXXXXX8 1
XXXXXXX9 0
XXXXXX10 1
XXXXXX11 1
XXXXXX12 0
XXXXXX13 1
XXXXXX14 1
XXXXXX15 1
XXXXXX16 1
XXXXXX17 1
XXXXXX18 1
XXXXXX19 1
XXXXXX20 1
XXXXXX21 1
XXXXXX22 0
XXXXXX23 1
XXXXXX24 1
XXXXXX25 1
XXXXXX26 1
XXXXXX27 1
XXXXXX28 1
XXXXXX29 1
XXXXXX30 1
XXXXXX31 1
XXXXXX32 1
XXXXXX33 1
XXXXXX34 1
XXXXXX35 1
XXXXXX36 1
XXXXXX37 1
XXXXXX38 1
XXXXXX39 1
XXXXXX40 1
XXXXXX41 1
XXXXXX42 1
XXXXXX43 1
XXXXXX44 1
XXXXXX45 1
XXXXXX46 1
XXXXXX47 1
XXXXXX48 1
XXXXXX49 1
XXXXXX50 1
XXXXXX51 1
XXXXXX52 1
XXXXXX53 1
XXXXXX54 1
XXXXXX55 1
XXXXXX56 1
XXXXXX57 1
XXXXXX58 1
XXXXXX59 1
XXXXXX60 1
XXXXXX61 1
XXXXXX62 1
XXXXXX63 1
XXXXXX64 1
XXXXXX65 1
XXXXXX66 1
XXXXXX67 1
XXXXXX68 1
XXXXXX69 1
XXXXXX70 1
XXXXXX71 1
XXXXXX72 1
XXXXXX73 1
XXXXXX74 1
XXXXXX75 1
XXXXXX76 1
XXXXXX77 1
XXXXXX78 1
XXXXXX79 1
XXXXXX80 1
XXXXXX81 0
XXXXXX82 0
XXXXXX83 0
XXXXXX84 0
XXXXXX85 0
XXXXXX86 0
XXXXXX87 0
XXXXXX88 0
XXXXXX89 0
XXXXXX90 0
XXXXXX91 0
XXXXXX92 0
XXXXXX93 0
XXXXXX94 0
XXXXXX95 0
XXXXXX96 0
XXXXXX97 0
XXXXXX98 0
XXXXXX99 0
XXXXX100 0
XXXXX101 0
XXXXX102 0
XXXXX103 0
XXXXX104 0
XXXXX105 0
XXXXX106 0
XXXXX107 0
XXXXX108 0
XXXXX109 0
XXXXX110 0
XXXXX111 0
XXXXX112 0
XXXXX113 0
XXXXX114 0
XXXXX115 0
XXXXX116 0
XXXXX117 0
XXXXX118 0
XXXXX119 0
XXXXX120 0
XXXXX121 0
XXXXX122 0
XXXXX123 0
XXXXX124 0
XXXXX125 0
XXXXX126 0
XXXXX127 0
XXXXX128 0
XXXXX129 0
XXXXX130 0
XXXXX131 0
XXXXX132 0
XXXXX133 0
XXXXX134 0
XXXXX135 0
XXXXX136 0
XXXXX137 0
XXXXX138 0
XXXXX139 0
XXXXX140 0
XXXXX141 0
XXXXX142 0
XXXXX143 0
XXXXX144 0
XXXXX145 0
XXXXX146 0
XXXXX147 0
XXXXX148 0
XXXXX149 0
XXXXX150 0
XXXXX151 0
XXXXX152 0
XXXXX153 0
XXXXX154 0
XXXXX155 0
XXXXX156 0
XXXXX157 0
XXXXX158 0
XXXXX159 0
XXXXX160 0
XXXXX161 0
XXXXX162 0
XXXXX163 0
XXXXX164 0
XXXXX165 0
XXXXX166 1
XXXXX167 1
XXXXX168 1
XXXXX169 1
XXXXX170 1
XXXXX171 1
XXXXX172 1
XXXXX173 1
XXXXX174 1
XXXXX175 1
XXXXX176 1
XXXXX177 1
XXXXX178 0
XXXXX179 1
XXXXX180 1
XXXXX181 0
XXXXX182 1
XXXXX183 1
XXXXX184 1
XXXXX185 1
XXXXX186 1
XXXXX187 1
XXXXX188 1
XXXXX189 1
XXXXX190 1
XXXXX191 1
XXXXX192 0
XXXXX193 1
XXXXX194 1
XXXXX195 1
XXXXX196 1
XXXXX197 1
XXXXX198 1
XXXXX199 1
XXXXX200 1
XXXXX201 1
XXXXX202 1
XXXXX203 1
XXXXX204 1
XXXXX205 1
XXXXX206 1
XXXXX207 1
XXXXX208 1
XXXXX209 0
XXXXX210 1
XXXXX211 1
XXXXX212 1
XXXXX213 1
XXXXX214 1
XXXXX215 1
XXXXX216 1
XXXXX217 1
XXXXX218 1
XXXXX219 1
XXXXX220 1
XXXXX221 1
XXXXX222 1
XXXXX223 1
XXXXX224 1
XXXXX225 1
XXXXX226 0
XXXXX227 1
XXXXX228 1
XXXXX229 1
XXXXX230 1
XXXXX231 1
XXXXX232 1
XXXXX233 1
XXXXX234 1
XXXXX235 1
XXXXX236 1
XXXXX237 1
XXXXX238 1
XXXXX239 1
XXXXX240 1
XXXXX241 1
XXXXX242 1
XXXXX243 1
XXXXX244 1
XXXXX245 1
XXXXX246 1
XXXXX247 1
XXXXX248 1
XXXXX249 1
XXXXX250 0
XXXXX251 1
XXXXX252 1
XXXXX253 1
XXXXX254 0
XXXXX255 0
XXXXX256 1
XXXXX257 1
XXXXX258 0
XXXXX259 1
XXXXX260 1
XXXXX261 1
XXXXX262 1
XXXXX263 1
XXXXX264 1
XXXXX265 1
XXXXX266 1
XXXXX267 1
XXXXX268 1
XXXXX269 1
XXXXX270 1
XXXXX271 1
XXXXX272 1
XXXXX273 1
XXXXX274 1
XXXXX275 0
XXXXX276 1
XXXXX277 1
XXXXX278 1
XXXXX279 1
XXXXX280 1
XXXXX281 1
XXXXX282 1
XXXXX283 1
XXXXX284 1
XXXXX285 0
XXXXX286 1
XXXXX287 1
XXXXX288 1
XXXXX289 1
XXXXX290 1
XXXXX291 1
XXXXX292 1
XXXXX293 1
XXXXX294 1
XXXXX295 1
XXXXX296 1
XXXXX297 1
XXXXX298 1
XXXXX299 1
XXXXX300 1
XXXXX301 1
XXXXX302 1
XXXXX303 1
XXXXX304 1
XXXXX305 0
XXXXX306 1
XXXXX307 1
XXXXX308 1
XXXXX309 1
XXXXX310 1
XXXXX311 1
XXXXX312 1
XXXXX313 0
XXXXX314 1
XXXXX315 0
XXXXX316 1
XXXXX317 1
XXXXX318 1
XXXXX319 1
XXXXX320 1
XXXXX321 1
XXXXX322 1
XXXXX323 1
XXXXX324 1
XXXXX325 1
XXXXX326 1
XXXXX327 1
XXXXX328 1
XXXXX329 1
XXXXX330 1
XXXXX331 1
XXXXX332 1
XXXXX333 1
XXXXX334 0
XXXXX335 1
XXXXX336 1
XXXXX337 1
XXXXX338 1
XXXXX339 1
XXXXX340 1
XXXXX341 1
XXXXX342 0
XXXXX343 0
XXXXX344 0
XXXXX345 0
XXXXX346 0
XXXXX347 0
XXXXX348 0
XXXXX349 0
XXXXX350 0
XXXXX351 0
XXXXX352 0
XXXXX353 0
XXXXX354 0
XXXXX355 0
XXXXX356 0
XXXXX357 0
XXXXX358 0
XXXXX359 0
XXXXX360 0
XXXXX361 0
XXXXX362 0
XXXXX363 0
XXXXX364 0
XXXXX365 0
XXXXX366 0
XXXXX367 0
XXXXX368 0
XXXXX369 0
XXXXX370 0
XXXXX371 0
XXXXX372 0
XXXXX373 0
XXXXX374 0
XXXXX375 0
XXXXX376 0
XXXXX377 0
XXXXX378 0
XXXXX379 0
XXXXX380 0
XXXXX381 0
XXXXX382 0
XXXXX383 0
XXXXX384 0
XXXXX385 0
XXXXX386 0
XXXXX387 0
XXXXX388 0
XXXXX389 0
XXXXX390 0
XXXXX391 0
XXXXX392 0
XXXXX393 0
XXXXX394 0
XXXXX395 0
XXXXX396 0
XXXXX397 0
XXXXX398 0
XXXXX399 0
XXXXX400 0
XXXXX401 0
XXXXX402 0
XXXXX403 0
XXXXX404 0
XXXXX405 0
XXXXX406 0
XXXXX407 0
XXXXX408 0
XXXXX409 0
XXXXX410 0
XXXXX411 0
XXXXX412 0
XXXXX413 0
XXXXX414 0
XXXXX415 0
XXXXX416 0
XXXXX417 0
XXXXX418 0
XXXXX419 0
XXXXX420 0
XXXXX421 0
XXXXX422 0
XXXXX423 0
XXXXX424 0
XXXXX425 0
XXXXX426 0
XXXXX427 0
XXXXX428 0
XXXXX429 0
XXXXX430 0
XXXXX431 0
XXXXX432 0
XXXXX433 0
XXXXX434 0
XXXXX435 0
XXXXX436 0
XXXXX437 0
XXXXX438 0
XXXXX439 0
XXXXX440 0
XXXXX441 0
XXXXX442 0
XXXXX443 0
XXXXX444 0
XXXXX445 0
XXXXX446 0
XXXXX447 0
XXXXX448 0
XXXXX449 0
XXXXX450 0
XXXXX451 0
XXXXX452 0
XXXXX453 0
XXXXX454 0
XXXXX455 0
XXXXX456 0
XXXXX457 0
XXXXX458 0
XXXXX459 0
XXXXX460 0
XXXXX461 0
XXXXX462 0
XXXXX463 0
XXXXX464 0
XXXXX465 0
XXXXX466 0
XXXXX467 0
XXXXX468 0
XXXXX469 0
XXXXX470 0
XXXXX471 0
XXXXX472 0
XXXXX473 0
XXXXX474 0
XXXXX475 0
XXXXX476 0
XXXXX477 0
XXXXX478 0
XXXXX479 0
XXXXX480 0
XXXXX481 0
XXXXX482 0
XXXXX483 0
XXXXX484 0
XXXXX485 0
XXXXX486 0
XXXXX487 0
XXXXX488 0
XXXXX489 0
XXXXX490 0
XXXXX491 0
XXXXX492 0
XXXXX493 0
XXXXX494 0
XXXXX495 0
XXXXX496 0
XXXXX497 0
XXXXX498 0
XXXXX499 0
YYYYYYY0 1
YYYYYYY1 0
YYYYYYY2 1
YYYYYYY3 1
YYYYYYY4 0
